NAME : eil51.out.tour 
COMMENT : Optimal tour for eil51.tsp (441.43)
TYPE : TOUR 
DIMENSION : 51
TOUR_SECTION
46
51
47
18
4
17
37
15
33
45
44
42
19
40
41
13
25
14
24
43
7
23
6
27
48
8
26
31
28
3
36
35
20
22
1
32
11
16
2
29
21
50
34
30
39
10
49
9
38
5
12
46
-1 
EOF 
